1618300
88,107,22,21,13,20,56,52,100,98,51,15,78,46,19,72,90,2,65,77,54,101,28,4,59,83,41,42,18,61,1,81,23,14,27,50,32,43,80,-1,3,33,99,96,105,92,44,79,0,57,82,49,93,30,102,95,45,37,12,68,67,25,84,73,55,29,70,36,24,35,39,69,97,74,48,16,5,86,63,10,34,26,6,58,40,104,31,76,106,53,38,66,71,17,60,85,94,91,11,103,87,9,47,89,62,8,64,75,7,88
